Minimize
  0.07884 C16(0) + 0.21024 C17(0) + 0.15768 C18(0) + 0 C19(0) + 0 C20(0)
   + 0 C21(0) + 0 C22(0) + 0 C23(0) + 0 C24(0) + 0 C25(0) + 0 C26(0)
   + 0 C27(0) + 0 C28(0) + 0 C29(0) + 0 C30(0) + 0 C37(0) + 0 C38(0)
   + 0 C39(0) + 0 C40(0) + 0 C41(0) + 0 C42(0) + 0 C43(0) + 0 C44(0)
   + 2 B45(0) + B46(0) + 3.5 B47(0) + 1.5 B48(0) + B49(0) + 2 B50(0)
   + 2 B51(0) + 3 B52(0) + 0.0716727272727273 C69(0)
   + 0.1911272727272728 C70(0) + 0.1433454545454546 C71(0) + 0 C72(0)
   + 0 C73(0) + 0 C74(0) + 0 C75(0) + 0 C76(0) + 0 C77(0) + 0 C78(0)
   + 0 C79(0) + 0 C80(0) + 0 C81(0) + 0 C82(0) + 0 C83(0) + 0 C90(0)
   + 0 C91(0) + 0 C92(0) + 0 C93(0) + 0 C94(0) + 0 C95(0) + 0 C96(0)
   + 0 C97(0) + 1.818181818181818 B98(0) + 0.9090909090909091 B99(0)
   + 3.181818181818182 B100(0) + 1.363636363636364 B101(0)
   + 0.9090909090909091 B102(0) + 1.818181818181818 B103(0)
   + 1.818181818181818 B104(0) + 2.727272727272727 B105(0)
   + 0.0651570247933884 C122(0) + 0.1737520661157024 C123(0)
   + 0.1303140495867768 C124(0) + 0 C125(0) + 0 C126(0) + 0 C127(0)
   + 0 C128(0) + 0 C129(0) + 0 C130(0) + 0 C131(0) + 0 C132(0) + 0 C133(0)
   + 0 C134(0) + 0 C135(0) + 0 C136(0) + 0 C143(0) + 0 C144(0) + 0 C145(0)
   + 0 C146(0) + 0 C147(0) + 0 C148(0) + 0 C149(0) + 0 C150(0)
   + 1.652892561983471 B151(0) + 0.8264462809917354 B152(0)
   + 2.892561983471074 B153(0) + 1.239669421487603 B154(0)
   + 0.8264462809917354 B155(0) + 1.652892561983471 B156(0)
   + 1.652892561983471 B157(0) + 2.479338842975206 B158(0)
   + 0.0592336589030804 C175(0) + 0.1579564237415476 C176(0)
   + 0.1184673178061607 C177(0) + 0 C178(0) + 0 C179(0) + 0 C180(0)
   + 0 C181(0) + 0 C182(0) + 0 C183(0) + 0 C184(0) + 0 C185(0) + 0 C186(0)
   + 0 C187(0) + 0 C188(0) + 0 C189(0) + 0 C196(0) + 0 C197(0) + 0 C198(0)
   + 0 C199(0) + 0 C200(0) + 0 C201(0) + 0 C202(0) + 0 C203(0)
   + 1.502629601803155 B204(0) + 0.7513148009015775 B205(0)
   + 2.629601803155521 B206(0) + 1.126972201352366 B207(0)
   + 0.7513148009015775 B208(0) + 1.502629601803155 B209(0)
   + 1.502629601803155 B210(0) + 2.253944402704732 B211(0)
   + 0.0538487808209822 C228(0) + 0.1435967488559524 C229(0)
   + 0.1076975616419643 C230(0) + 0 C231(0) + 0 C232(0) + 0 C233(0)
   + 0 C234(0) + 0 C235(0) + 0 C236(0) + 0 C237(0) + 0 C238(0) + 0 C239(0)
   + 0 C240(0) + 0 C241(0) + 0 C242(0) + 0 C249(0) + 0 C250(0) + 0 C251(0)
   + 0 C252(0) + 0 C253(0) + 0 C254(0) + 0 C255(0) + 0 C256(0)
   + 1.366026910730141 B257(0) + 0.6830134553650705 B258(0)
   + 2.390547093777747 B259(0) + 1.024520183047606 B260(0)
   + 0.6830134553650705 B261(0) + 1.366026910730141 B262(0)
   + 1.366026910730141 B263(0) + 2.049040366095212 B264(0)
   + 0.0489534371099838 C281(0) + 0.1305424989599567 C282(0)
   + 0.0979068742199675 C283(0) + 0 C284(0) + 0 C285(0) + 0 C286(0)
   + 0 C287(0) + 0 C288(0) + 0 C289(0) + 0 C290(0) + 0 C291(0) + 0 C292(0)
   + 0 C293(0) + 0 C294(0) + 0 C295(0) + 0 C302(0) + 0 C303(0) + 0 C304(0)
   + 0 C305(0) + 0 C306(0) + 0 C307(0) + 0 C308(0) + 0 C309(0)
   + 1.24184264611831 B310(0) + 0.6209213230591549 B311(0)
   + 2.173224630707042 B312(0) + 0.9313819845887324 B313(0)
   + 0.6209213230591549 B314(0) + 1.24184264611831 B315(0)
   + 1.24184264611831 B316(0) + 1.862763969177465 B317(0)
   + 0.0445031246454398 C334(0) + 0.1186749990545061 C335(0)
   + 0.0890062492908796 C336(0) + 0 C337(0) + 0 C338(0) + 0 C339(0)
   + 0 C340(0) + 0 C341(0) + 0 C342(0) + 0 C343(0) + 0 C344(0) + 0 C345(0)
   + 0 C346(0) + 0 C347(0) + 0 C348(0) + 0 C355(0) + 0 C356(0) + 0 C357(0)
   + 0 C358(0) + 0 C359(0) + 0 C360(0) + 0 C361(0) + 0 C362(0)
   + 1.128947860107554 B363(0) + 0.5644739300537772 B364(0)
   + 1.97565875518822 B365(0) + 0.8467108950806658 B366(0)
   + 0.5644739300537772 B367(0) + 1.128947860107554 B368(0)
   + 1.128947860107554 B369(0) + 1.693421790161332 B370(0)
   + 0.0404573860413089 C387(0) + 0.1078863627768237 C388(0)
   + 0.0809147720826178 C389(0) + 0 C390(0) + 0 C391(0) + 0 C392(0)
   + 0 C393(0) + 0 C394(0) + 0 C395(0) + 0 C396(0) + 0 C397(0) + 0 C398(0)
   + 0 C399(0) + 0 C400(0) + 0 C401(0) + 0 C408(0) + 0 C409(0) + 0 C410(0)
   + 0 C411(0) + 0 C412(0) + 0 C413(0) + 0 C414(0) + 0 C415(0)
   + 1.026316236461413 B416(0) + 0.5131581182307065 B417(0)
   + 1.796053413807473 B418(0) + 0.7697371773460596 B419(0)
   + 0.5131581182307065 B420(0) + 1.026316236461413 B421(0)
   + 1.026316236461413 B422(0) + 1.539474354692119 B423(0)
   + 0.0367794418557354 C440(0) + 0.0980785116152943 C441(0)
   + 0.0735588837114707 C442(0) + 0 C443(0) + 0 C444(0) + 0 C445(0)
   + 0 C446(0) + 0 C447(0) + 0 C448(0) + 0 C449(0) + 0 C450(0) + 0 C451(0)
   + 0 C452(0) + 0 C453(0) + 0 C454(0) + 0 C461(0) + 0 C462(0) + 0 C463(0)
   + 0 C464(0) + 0 C465(0) + 0 C466(0) + 0 C467(0) + 0 C468(0)
   + 0.9330147604194662 B469(0) + 0.4665073802097331 B470(0)
   + 1.632775830734066 B471(0) + 0.6997610703145997 B472(0)
   + 0.4665073802097331 B473(0) + 0.9330147604194662 B474(0)
   + 0.9330147604194662 B475(0) + 1.399522140629199 B476(0)
   + 0.0334358562324867 C493(0) + 0.0891622832866312 C494(0)
   + 0.0668717124649734 C495(0) + 0 C496(0) + 0 C497(0) + 0 C498(0)
   + 0 C499(0) + 0 C500(0) + 0 C501(0) + 0 C502(0) + 0 C503(0) + 0 C504(0)
   + 0 C505(0) + 0 C506(0) + 0 C507(0) + 0 C514(0) + 0 C515(0) + 0 C516(0)
   + 0 C517(0) + 0 C518(0) + 0 C519(0) + 0 C520(0) + 0 C521(0)
   + 0.8481952367449691 B522(0) + 0.4240976183724846 B523(0)
   + 1.484341664303696 B524(0) + 0.6361464275587269 B525(0)
   + 0.4240976183724846 B526(0) + 0.8481952367449691 B527(0)
   + 0.8481952367449691 B528(0) + 1.272292855117454 B529(0)
Subject To
 c0: C0(2) + 70000 B8(2) - 5 C31(6) + 5 C32(4) <= 70000
 c1: - C0(2) - 70000 B8(2) + 5 C31(6) - 5 C32(4) <= 70000
 c2: C1(2) + 70000 B9(2) - 10 C32(4) + 10 C33(6) <= 70000
 c3: - C1(2) - 70000 B9(2) + 10 C32(4) - 10 C33(6) <= 70000
 c4: C2(2) + 70000 B10(2) - 2.857142857142857 C33(6)
   + 2.857142857142857 C36(6) <= 70000
 c5: - C2(2) - 70000 B10(2) + 2.857142857142857 C33(6)
   - 2.857142857142857 C36(6) <= 70000
 c6: C3(2) + 70000 B11(2) + 6.666666666666667 C31(6)
   - 6.666666666666667 C33(6) <= 70000
 c7: - C3(2) - 70000 B11(2) - 6.666666666666667 C31(6)
   + 6.666666666666667 C33(6) <= 70000
 c8: C4(2) + 70000 B12(2) + 10 C34(4) - 10 C36(6) <= 70000
 c9: - C4(2) - 70000 B12(2) - 10 C34(4) + 10 C36(6) <= 70000
 c10: C5(2) + 70000 B13(2) + 5 C35(6) - 5 C36(6) <= 70000
 c11: - C5(2) - 70000 B13(2) - 5 C35(6) + 5 C36(6) <= 70000
 c12: C6(2) + 70000 B14(2) - 5 C34(4) + 5 C35(6) <= 70000
 c13: - C6(2) - 70000 B14(2) + 5 C34(4) - 5 C35(6) <= 70000
 c14: C7(2) + 70000 B15(2) + 3.333333333333333 C31(6)
   - 3.333333333333333 C35(6) <= 70000
 c15: - C7(2) - 70000 B15(2) - 3.333333333333333 C31(6)
   + 3.333333333333333 C35(6) <= 70000
 c16: C53(2) + 70000 B61(2) - 5 C84(6) + 5 C85(4) <= 70000
 c17: - C53(2) - 70000 B61(2) + 5 C84(6) - 5 C85(4) <= 70000
 c18: C54(2) + 70000 B62(2) - 10 C85(4) + 10 C86(6) <= 70000
 c19: - C54(2) - 70000 B62(2) + 10 C85(4) - 10 C86(6) <= 70000
 c20: C55(2) + 70000 B63(2) - 2.857142857142857 C86(6)
   + 2.857142857142857 C89(6) <= 70000
 c21: - C55(2) - 70000 B63(2) + 2.857142857142857 C86(6)
   - 2.857142857142857 C89(6) <= 70000
 c22: C56(2) + 70000 B64(2) + 6.666666666666667 C84(6)
   - 6.666666666666667 C86(6) <= 70000
 c23: - C56(2) - 70000 B64(2) - 6.666666666666667 C84(6)
   + 6.666666666666667 C86(6) <= 70000
 c24: C57(2) + 70000 B65(2) + 10 C87(4) - 10 C89(6) <= 70000
 c25: - C57(2) - 70000 B65(2) - 10 C87(4) + 10 C89(6) <= 70000
 c26: C58(2) + 70000 B66(2) + 5 C88(6) - 5 C89(6) <= 70000
 c27: - C58(2) - 70000 B66(2) - 5 C88(6) + 5 C89(6) <= 70000
 c28: C59(2) + 70000 B67(2) - 5 C87(4) + 5 C88(6) <= 70000
 c29: - C59(2) - 70000 B67(2) + 5 C87(4) - 5 C88(6) <= 70000
 c30: C60(2) + 70000 B68(2) + 3.333333333333333 C84(6)
   - 3.333333333333333 C88(6) <= 70000
 c31: - C60(2) - 70000 B68(2) - 3.333333333333333 C84(6)
   + 3.333333333333333 C88(6) <= 70000
 c32: C106(2) + 70000 B114(2) - 5 C137(6) + 5 C138(4) <= 70000
 c33: - C106(2) - 70000 B114(2) + 5 C137(6) - 5 C138(4) <= 70000
 c34: C107(2) + 70000 B115(2) - 10 C138(4) + 10 C139(6) <= 70000
 c35: - C107(2) - 70000 B115(2) + 10 C138(4) - 10 C139(6) <= 70000
 c36: C108(2) + 70000 B116(2) - 2.857142857142857 C139(6)
   + 2.857142857142857 C142(6) <= 70000
 c37: - C108(2) - 70000 B116(2) + 2.857142857142857 C139(6)
   - 2.857142857142857 C142(6) <= 70000
 c38: C109(2) + 70000 B117(2) + 6.666666666666667 C137(6)
   - 6.666666666666667 C139(6) <= 70000
 c39: - C109(2) - 70000 B117(2) - 6.666666666666667 C137(6)
   + 6.666666666666667 C139(6) <= 70000
 c40: C110(2) + 70000 B118(2) + 10 C140(4) - 10 C142(6) <= 70000
 c41: - C110(2) - 70000 B118(2) - 10 C140(4) + 10 C142(6) <= 70000
 c42: C111(2) + 70000 B119(2) + 5 C141(6) - 5 C142(6) <= 70000
 c43: - C111(2) - 70000 B119(2) - 5 C141(6) + 5 C142(6) <= 70000
 c44: C112(2) + 70000 B120(2) - 5 C140(4) + 5 C141(6) <= 70000
 c45: - C112(2) - 70000 B120(2) + 5 C140(4) - 5 C141(6) <= 70000
 c46: C113(2) + 70000 B121(2) + 3.333333333333333 C137(6)
   - 3.333333333333333 C141(6) <= 70000
 c47: - C113(2) - 70000 B121(2) - 3.333333333333333 C137(6)
   + 3.333333333333333 C141(6) <= 70000
 c48: C159(2) + 70000 B167(2) - 5 C190(6) + 5 C191(4) <= 70000
 c49: - C159(2) - 70000 B167(2) + 5 C190(6) - 5 C191(4) <= 70000
 c50: C160(2) + 70000 B168(2) - 10 C191(4) + 10 C192(6) <= 70000
 c51: - C160(2) - 70000 B168(2) + 10 C191(4) - 10 C192(6) <= 70000
 c52: C161(2) + 70000 B169(2) - 2.857142857142857 C192(6)
   + 2.857142857142857 C195(6) <= 70000
 c53: - C161(2) - 70000 B169(2) + 2.857142857142857 C192(6)
   - 2.857142857142857 C195(6) <= 70000
 c54: C162(2) + 70000 B170(2) + 6.666666666666667 C190(6)
   - 6.666666666666667 C192(6) <= 70000
 c55: - C162(2) - 70000 B170(2) - 6.666666666666667 C190(6)
   + 6.666666666666667 C192(6) <= 70000
 c56: C163(2) + 70000 B171(2) + 10 C193(4) - 10 C195(6) <= 70000
 c57: - C163(2) - 70000 B171(2) - 10 C193(4) + 10 C195(6) <= 70000
 c58: C164(2) + 70000 B172(2) + 5 C194(6) - 5 C195(6) <= 70000
 c59: - C164(2) - 70000 B172(2) - 5 C194(6) + 5 C195(6) <= 70000
 c60: C165(2) + 70000 B173(2) - 5 C193(4) + 5 C194(6) <= 70000
 c61: - C165(2) - 70000 B173(2) + 5 C193(4) - 5 C194(6) <= 70000
 c62: C166(2) + 70000 B174(2) + 3.333333333333333 C190(6)
   - 3.333333333333333 C194(6) <= 70000
 c63: - C166(2) - 70000 B174(2) - 3.333333333333333 C190(6)
   + 3.333333333333333 C194(6) <= 70000
 c64: C212(2) + 70000 B220(2) - 5 C243(6) + 5 C244(4) <= 70000
 c65: - C212(2) - 70000 B220(2) + 5 C243(6) - 5 C244(4) <= 70000
 c66: C213(2) + 70000 B221(2) - 10 C244(4) + 10 C245(6) <= 70000
 c67: - C213(2) - 70000 B221(2) + 10 C244(4) - 10 C245(6) <= 70000
 c68: C214(2) + 70000 B222(2) - 2.857142857142857 C245(6)
   + 2.857142857142857 C248(6) <= 70000
 c69: - C214(2) - 70000 B222(2) + 2.857142857142857 C245(6)
   - 2.857142857142857 C248(6) <= 70000
 c70: C215(2) + 70000 B223(2) + 6.666666666666667 C243(6)
   - 6.666666666666667 C245(6) <= 70000
 c71: - C215(2) - 70000 B223(2) - 6.666666666666667 C243(6)
   + 6.666666666666667 C245(6) <= 70000
 c72: C216(2) + 70000 B224(2) + 10 C246(4) - 10 C248(6) <= 70000
 c73: - C216(2) - 70000 B224(2) - 10 C246(4) + 10 C248(6) <= 70000
 c74: C217(2) + 70000 B225(2) + 5 C247(6) - 5 C248(6) <= 70000
 c75: - C217(2) - 70000 B225(2) - 5 C247(6) + 5 C248(6) <= 70000
 c76: C218(2) + 70000 B226(2) - 5 C246(4) + 5 C247(6) <= 70000
 c77: - C218(2) - 70000 B226(2) + 5 C246(4) - 5 C247(6) <= 70000
 c78: C219(2) + 70000 B227(2) + 3.333333333333333 C243(6)
   - 3.333333333333333 C247(6) <= 70000
 c79: - C219(2) - 70000 B227(2) - 3.333333333333333 C243(6)
   + 3.333333333333333 C247(6) <= 70000
 c80: C265(2) + 70000 B273(2) - 5 C296(6) + 5 C297(4) <= 70000
 c81: - C265(2) - 70000 B273(2) + 5 C296(6) - 5 C297(4) <= 70000
 c82: C266(2) + 70000 B274(2) - 10 C297(4) + 10 C298(6) <= 70000
 c83: - C266(2) - 70000 B274(2) + 10 C297(4) - 10 C298(6) <= 70000
 c84: C267(2) + 70000 B275(2) - 2.857142857142857 C298(6)
   + 2.857142857142857 C301(6) <= 70000
 c85: - C267(2) - 70000 B275(2) + 2.857142857142857 C298(6)
   - 2.857142857142857 C301(6) <= 70000
 c86: C268(2) + 70000 B276(2) + 6.666666666666667 C296(6)
   - 6.666666666666667 C298(6) <= 70000
 c87: - C268(2) - 70000 B276(2) - 6.666666666666667 C296(6)
   + 6.666666666666667 C298(6) <= 70000
 c88: C269(2) + 70000 B277(2) + 10 C299(4) - 10 C301(6) <= 70000
 c89: - C269(2) - 70000 B277(2) - 10 C299(4) + 10 C301(6) <= 70000
 c90: C270(2) + 70000 B278(2) + 5 C300(6) - 5 C301(6) <= 70000
 c91: - C270(2) - 70000 B278(2) - 5 C300(6) + 5 C301(6) <= 70000
 c92: C271(2) + 70000 B279(2) - 5 C299(4) + 5 C300(6) <= 70000
 c93: - C271(2) - 70000 B279(2) + 5 C299(4) - 5 C300(6) <= 70000
 c94: C272(2) + 70000 B280(2) + 3.333333333333333 C296(6)
   - 3.333333333333333 C300(6) <= 70000
 c95: - C272(2) - 70000 B280(2) - 3.333333333333333 C296(6)
   + 3.333333333333333 C300(6) <= 70000
 c96: C318(2) + 70000 B326(2) - 5 C349(6) + 5 C350(4) <= 70000
 c97: - C318(2) - 70000 B326(2) + 5 C349(6) - 5 C350(4) <= 70000
 c98: C319(2) + 70000 B327(2) - 10 C350(4) + 10 C351(6) <= 70000
 c99: - C319(2) - 70000 B327(2) + 10 C350(4) - 10 C351(6) <= 70000
 c100: C320(2) + 70000 B328(2) - 2.857142857142857 C351(6)
   + 2.857142857142857 C354(6) <= 70000
 c101: - C320(2) - 70000 B328(2) + 2.857142857142857 C351(6)
   - 2.857142857142857 C354(6) <= 70000
 c102: C321(2) + 70000 B329(2) + 6.666666666666667 C349(6)
   - 6.666666666666667 C351(6) <= 70000
 c103: - C321(2) - 70000 B329(2) - 6.666666666666667 C349(6)
   + 6.666666666666667 C351(6) <= 70000
 c104: C322(2) + 70000 B330(2) + 10 C352(4) - 10 C354(6) <= 70000
 c105: - C322(2) - 70000 B330(2) - 10 C352(4) + 10 C354(6) <= 70000
 c106: C323(2) + 70000 B331(2) + 5 C353(6) - 5 C354(6) <= 70000
 c107: - C323(2) - 70000 B331(2) - 5 C353(6) + 5 C354(6) <= 70000
 c108: C324(2) + 70000 B332(2) - 5 C352(4) + 5 C353(6) <= 70000
 c109: - C324(2) - 70000 B332(2) + 5 C352(4) - 5 C353(6) <= 70000
 c110: C325(2) + 70000 B333(2) + 3.333333333333333 C349(6)
   - 3.333333333333333 C353(6) <= 70000
 c111: - C325(2) - 70000 B333(2) - 3.333333333333333 C349(6)
   + 3.333333333333333 C353(6) <= 70000
 c112: C371(2) + 70000 B379(2) - 5 C402(6) + 5 C403(4) <= 70000
 c113: - C371(2) - 70000 B379(2) + 5 C402(6) - 5 C403(4) <= 70000
 c114: C372(2) + 70000 B380(2) - 10 C403(4) + 10 C404(6) <= 70000
 c115: - C372(2) - 70000 B380(2) + 10 C403(4) - 10 C404(6) <= 70000
 c116: C373(2) + 70000 B381(2) - 2.857142857142857 C404(6)
   + 2.857142857142857 C407(6) <= 70000
 c117: - C373(2) - 70000 B381(2) + 2.857142857142857 C404(6)
   - 2.857142857142857 C407(6) <= 70000
 c118: C374(2) + 70000 B382(2) + 6.666666666666667 C402(6)
   - 6.666666666666667 C404(6) <= 70000
 c119: - C374(2) - 70000 B382(2) - 6.666666666666667 C402(6)
   + 6.666666666666667 C404(6) <= 70000
 c120: C375(2) + 70000 B383(2) + 10 C405(4) - 10 C407(6) <= 70000
 c121: - C375(2) - 70000 B383(2) - 10 C405(4) + 10 C407(6) <= 70000
 c122: C376(2) + 70000 B384(2) + 5 C406(6) - 5 C407(6) <= 70000
 c123: - C376(2) - 70000 B384(2) - 5 C406(6) + 5 C407(6) <= 70000
 c124: C377(2) + 70000 B385(2) - 5 C405(4) + 5 C406(6) <= 70000
 c125: - C377(2) - 70000 B385(2) + 5 C405(4) - 5 C406(6) <= 70000
 c126: C378(2) + 70000 B386(2) + 3.333333333333333 C402(6)
   - 3.333333333333333 C406(6) <= 70000
 c127: - C378(2) - 70000 B386(2) - 3.333333333333333 C402(6)
   + 3.333333333333333 C406(6) <= 70000
 c128: C424(2) + 70000 B432(2) - 5 C455(6) + 5 C456(4) <= 70000
 c129: - C424(2) - 70000 B432(2) + 5 C455(6) - 5 C456(4) <= 70000
 c130: C425(2) + 70000 B433(2) - 10 C456(4) + 10 C457(6) <= 70000
 c131: - C425(2) - 70000 B433(2) + 10 C456(4) - 10 C457(6) <= 70000
 c132: C426(2) + 70000 B434(2) - 2.857142857142857 C457(6)
   + 2.857142857142857 C460(6) <= 70000
 c133: - C426(2) - 70000 B434(2) + 2.857142857142857 C457(6)
   - 2.857142857142857 C460(6) <= 70000
 c134: C427(2) + 70000 B435(2) + 6.666666666666667 C455(6)
   - 6.666666666666667 C457(6) <= 70000
 c135: - C427(2) - 70000 B435(2) - 6.666666666666667 C455(6)
   + 6.666666666666667 C457(6) <= 70000
 c136: C428(2) + 70000 B436(2) + 10 C458(4) - 10 C460(6) <= 70000
 c137: - C428(2) - 70000 B436(2) - 10 C458(4) + 10 C460(6) <= 70000
 c138: C429(2) + 70000 B437(2) + 5 C459(6) - 5 C460(6) <= 70000
 c139: - C429(2) - 70000 B437(2) - 5 C459(6) + 5 C460(6) <= 70000
 c140: C430(2) + 70000 B438(2) - 5 C458(4) + 5 C459(6) <= 70000
 c141: - C430(2) - 70000 B438(2) + 5 C458(4) - 5 C459(6) <= 70000
 c142: C431(2) + 70000 B439(2) + 3.333333333333333 C455(6)
   - 3.333333333333333 C459(6) <= 70000
 c143: - C431(2) - 70000 B439(2) - 3.333333333333333 C455(6)
   + 3.333333333333333 C459(6) <= 70000
 c144: C477(2) + 70000 B485(2) - 5 C508(6) + 5 C509(4) <= 70000
 c145: - C477(2) - 70000 B485(2) + 5 C508(6) - 5 C509(4) <= 70000
 c146: C478(2) + 70000 B486(2) - 10 C509(4) + 10 C510(6) <= 70000
 c147: - C478(2) - 70000 B486(2) + 10 C509(4) - 10 C510(6) <= 70000
 c148: C479(2) + 70000 B487(2) - 2.857142857142857 C510(6)
   + 2.857142857142857 C513(6) <= 70000
 c149: - C479(2) - 70000 B487(2) + 2.857142857142857 C510(6)
   - 2.857142857142857 C513(6) <= 70000
 c150: C480(2) + 70000 B488(2) + 6.666666666666667 C508(6)
   - 6.666666666666667 C510(6) <= 70000
 c151: - C480(2) - 70000 B488(2) - 6.666666666666667 C508(6)
   + 6.666666666666667 C510(6) <= 70000
 c152: C481(2) + 70000 B489(2) + 10 C511(4) - 10 C513(6) <= 70000
 c153: - C481(2) - 70000 B489(2) - 10 C511(4) + 10 C513(6) <= 70000
 c154: C482(2) + 70000 B490(2) + 5 C512(6) - 5 C513(6) <= 70000
 c155: - C482(2) - 70000 B490(2) - 5 C512(6) + 5 C513(6) <= 70000
 c156: C483(2) + 70000 B491(2) - 5 C511(4) + 5 C512(6) <= 70000
 c157: - C483(2) - 70000 B491(2) + 5 C511(4) - 5 C512(6) <= 70000
 c158: C484(2) + 70000 B492(2) + 3.333333333333333 C508(6)
   - 3.333333333333333 C512(6) <= 70000
 c159: - C484(2) - 70000 B492(2) - 3.333333333333333 C508(6)
   + 3.333333333333333 C512(6) <= 70000
Bounds
 C0(2) free
 C1(2) free
 C2(2) free
 C3(2) free
 C4(2) free
 C5(2) free
 C6(2) free
 C7(2) free
 C31(6) free
 C32(4) free
 C33(6) free
 C34(4) free
 C35(6) free
 C36(6) free
 C37(0) free
 C38(0) free
 C39(0) free
 C40(0) free
 C41(0) free
 C42(0) free
 C43(0) free
 C44(0) free
 C53(2) free
 C54(2) free
 C55(2) free
 C56(2) free
 C57(2) free
 C58(2) free
 C59(2) free
 C60(2) free
 C84(6) free
 C85(4) free
 C86(6) free
 C87(4) free
 C88(6) free
 C89(6) free
 C90(0) free
 C91(0) free
 C92(0) free
 C93(0) free
 C94(0) free
 C95(0) free
 C96(0) free
 C97(0) free
 C106(2) free
 C107(2) free
 C108(2) free
 C109(2) free
 C110(2) free
 C111(2) free
 C112(2) free
 C113(2) free
 C137(6) free
 C138(4) free
 C139(6) free
 C140(4) free
 C141(6) free
 C142(6) free
 C143(0) free
 C144(0) free
 C145(0) free
 C146(0) free
 C147(0) free
 C148(0) free
 C149(0) free
 C150(0) free
 C159(2) free
 C160(2) free
 C161(2) free
 C162(2) free
 C163(2) free
 C164(2) free
 C165(2) free
 C166(2) free
 C190(6) free
 C191(4) free
 C192(6) free
 C193(4) free
 C194(6) free
 C195(6) free
 C196(0) free
 C197(0) free
 C198(0) free
 C199(0) free
 C200(0) free
 C201(0) free
 C202(0) free
 C203(0) free
 C212(2) free
 C213(2) free
 C214(2) free
 C215(2) free
 C216(2) free
 C217(2) free
 C218(2) free
 C219(2) free
 C243(6) free
 C244(4) free
 C245(6) free
 C246(4) free
 C247(6) free
 C248(6) free
 C249(0) free
 C250(0) free
 C251(0) free
 C252(0) free
 C253(0) free
 C254(0) free
 C255(0) free
 C256(0) free
 C265(2) free
 C266(2) free
 C267(2) free
 C268(2) free
 C269(2) free
 C270(2) free
 C271(2) free
 C272(2) free
 C296(6) free
 C297(4) free
 C298(6) free
 C299(4) free
 C300(6) free
 C301(6) free
 C302(0) free
 C303(0) free
 C304(0) free
 C305(0) free
 C306(0) free
 C307(0) free
 C308(0) free
 C309(0) free
 C318(2) free
 C319(2) free
 C320(2) free
 C321(2) free
 C322(2) free
 C323(2) free
 C324(2) free
 C325(2) free
 C349(6) free
 C350(4) free
 C351(6) free
 C352(4) free
 C353(6) free
 C354(6) free
 C355(0) free
 C356(0) free
 C357(0) free
 C358(0) free
 C359(0) free
 C360(0) free
 C361(0) free
 C362(0) free
 C371(2) free
 C372(2) free
 C373(2) free
 C374(2) free
 C375(2) free
 C376(2) free
 C377(2) free
 C378(2) free
 C402(6) free
 C403(4) free
 C404(6) free
 C405(4) free
 C406(6) free
 C407(6) free
 C408(0) free
 C409(0) free
 C410(0) free
 C411(0) free
 C412(0) free
 C413(0) free
 C414(0) free
 C415(0) free
 C424(2) free
 C425(2) free
 C426(2) free
 C427(2) free
 C428(2) free
 C429(2) free
 C430(2) free
 C431(2) free
 C455(6) free
 C456(4) free
 C457(6) free
 C458(4) free
 C459(6) free
 C460(6) free
 C461(0) free
 C462(0) free
 C463(0) free
 C464(0) free
 C465(0) free
 C466(0) free
 C467(0) free
 C468(0) free
 C477(2) free
 C478(2) free
 C479(2) free
 C480(2) free
 C481(2) free
 C482(2) free
 C483(2) free
 C484(2) free
 C508(6) free
 C509(4) free
 C510(6) free
 C511(4) free
 C512(6) free
 C513(6) free
 C514(0) free
 C515(0) free
 C516(0) free
 C517(0) free
 C518(0) free
 C519(0) free
 C520(0) free
 C521(0) free
Binaries
 B8(2) B9(2) B10(2) B11(2) B12(2) B13(2) B14(2) B15(2) B45(0) B46(0) B47(0)
 B48(0) B49(0) B50(0) B51(0) B52(0) B61(2) B62(2) B63(2) B64(2) B65(2)
 B66(2) B67(2) B68(2) B98(0) B99(0) B100(0) B101(0) B102(0) B103(0) B104(0)
 B105(0) B114(2) B115(2) B116(2) B117(2) B118(2) B119(2) B120(2) B121(2)
 B151(0) B152(0) B153(0) B154(0) B155(0) B156(0) B157(0) B158(0) B167(2)
 B168(2) B169(2) B170(2) B171(2) B172(2) B173(2) B174(2) B204(0) B205(0)
 B206(0) B207(0) B208(0) B209(0) B210(0) B211(0) B220(2) B221(2) B222(2)
 B223(2) B224(2) B225(2) B226(2) B227(2) B257(0) B258(0) B259(0) B260(0)
 B261(0) B262(0) B263(0) B264(0) B273(2) B274(2) B275(2) B276(2) B277(2)
 B278(2) B279(2) B280(2) B310(0) B311(0) B312(0) B313(0) B314(0) B315(0)
 B316(0) B317(0) B326(2) B327(2) B328(2) B329(2) B330(2) B331(2) B332(2)
 B333(2) B363(0) B364(0) B365(0) B366(0) B367(0) B368(0) B369(0) B370(0)
 B379(2) B380(2) B381(2) B382(2) B383(2) B384(2) B385(2) B386(2) B416(0)
 B417(0) B418(0) B419(0) B420(0) B421(0) B422(0) B423(0) B432(2) B433(2)
 B434(2) B435(2) B436(2) B437(2) B438(2) B439(2) B469(0) B470(0) B471(0)
 B472(0) B473(0) B474(0) B475(0) B476(0) B485(2) B486(2) B487(2) B488(2)
 B489(2) B490(2) B491(2) B492(2) B522(0) B523(0) B524(0) B525(0) B526(0)
 B527(0) B528(0) B529(0)
End
